30
1 0 4
2 0 13
3 0 6
3 1 5
3 2 7
4 2 1
4 3 1
5 0 8
5 1 5
5 4 8
6 2 2
7 0 1
7 2 11
7 3 3
7 4 8
8 0 13
8 7 2
9 1 6
9 2 12
9 3 4
9 6 2
9 7 9
10 1 3
10 2 5
10 6 13
10 7 6
10 8 6
10 9 5
11 2 12
11 3 10
11 4 6
11 6 7
11 7 5
11 9 3
12 1 7
12 3 1
12 5 13
12 6 13
12 8 13
12 9 8
12 10 13
13 0 6
13 1 10
13 2 2
13 3 12
13 6 3
13 10 3
14 4 12
14 5 6
14 6 1
14 7 4
14 10 8
14 11 9
15 0 10
15 2 13
15 3 13
15 4 6
15 8 5
15 9 6
15 10 2
15 12 10
15 14 3
16 1 3
16 2 9
16 3 2
16 5 11
16 6 5
16 8 8
16 9 4
16 13 11
16 14 3
16 15 4
17 1 1
17 2 13
17 3 10
17 4 8
17 5 4
17 6 5
17 7 13
17 11 12
17 12 4
17 15 1
18 1 10
18 3 1
18 4 8
18 5 8
18 12 3
18 13 6
18 15 2
18 16 13
19 0 13
19 3 6
19 6 11
19 7 10
19 11 8
19 12 10
19 14 2
19 16 1
19 18 2
20 5 5
20 6 3
20 7 6
20 8 9
20 10 13
20 11 10
20 12 8
20 17 5
20 18 10
21 0 3
21 1 9
21 2 13
21 3 7
21 6 1
21 8 10
21 9 11
21 10 4
21 11 5
21 12 5
21 16 1
21 18 1
21 19 8
22 0 12
22 1 10
22 2 5
22 4 7
22 10 3
22 11 9
22 12 11
22 13 8
22 14 3
22 16 13
22 20 4
23 1 13
23 3 8
23 4 10
23 9 5
23 12 1
23 15 8
23 17 2
23 19 3
23 20 7
23 21 4
24 4 3
24 6 11
24 9 11
24 10 1
24 13 10
24 14 9
24 16 4
24 19 6
25 0 11
25 1 6
25 4 8
25 5 4
25 10 9
25 13 13
25 15 13
25 17 2
25 18 1
25 20 5
25 21 7
25 22 10
26 1 10
26 3 11
26 4 9
26 7 2
26 9 8
26 12 2
26 17 8
26 18 10
26 19 10
26 20 1
26 21 8
26 22 9
26 24 7
27 0 8
27 1 10
27 9 2
27 10 4
27 12 3
27 15 4
27 18 6
27 20 8
27 21 12
27 23 3
28 1 7
28 2 4
28 3 10
28 4 13
28 5 11
28 6 7
28 8 13
28 10 3
28 13 7
28 14 13
28 15 2
28 16 7
28 19 13
28 20 13
28 21 4
28 24 7
28 27 10
29 0 11
29 3 5
29 4 7
29 7 1
29 8 13
29 9 6
29 10 6
29 11 5
29 14 1
29 15 3
29 18 7
29 19 12
29 21 3
29 23 8
29 24 13
29 25 3
